LAMMPS data file via write_data, version 22 Jul 2025, timestep = 440013, units = real

183 atoms
7 atom types

0 25.2 xlo xhi
0 25.2 ylo yhi
0 32 zlo zhi

Masses

1 132.90545196
2 207.2
3 126.90447
4 12.011
5 14.007
6 32.06
7 1.008

Atoms # full

14 0 3 -1.13 5.887361839389371 2.2079210418480963 8.119720562072459 0 0 0
21 0 2 2.03 5.72399024282692 5.2931394816816315 7.934128594544389 0 0 0
143 0 3 -1.13 2.8057941594166405 5.185687379720733 8.20164938792223 1 0 0
23 0 3 -1.13 8.739801970932055 5.096569258937867 7.321224144360098 0 0 0
61 0 2 2.03 11.792944742150782 5.524576849850217 7.601946770252506 0 0 0
63 0 3 -1.13 15.153708505410744 5.303656358960161 8.090948246104336 0 0 0
64 0 3 -1.13 12.167892777846582 8.549447753588305 7.1275350451038655 0 0 0
54 0 3 -1.13 11.985473558272778 2.1585954897054918 7.6948967507384305 0 0 0
101 0 2 2.03 18.63220270589592 5.415204406264575 7.966554825582536 0 0 0
134 0 3 -1.13 24.76831829659967 2.2432855526029507 7.8547087516267835 0 0 0
141 0 2 2.03 24.65642744603739 5.4409726424179 7.972339550157997 0 0 0
103 0 3 -1.13 21.739580716790755 5.225699657098678 7.561789475760114 0 0 0
94 0 3 -1.13 18.31467814844675 2.3086767955548204 7.88625475913356 0 0 0
104 0 3 -1.13 18.158681119263584 8.531901558922119 7.758507936337685 0 0 0
24 0 3 -1.13 5.924248329391645 8.555804817144924 7.487510920118695 0 0 0
31 0 2 2.03 5.919892601044586 11.886256421802596 7.925972499873727 0 0 0
153 0 3 -1.13 2.7151695374135447 11.841720004821777 7.483427686677676 1 0 0
34 0 3 -1.13 5.8441091749375165 14.907457675370008 8.091716996852352 0 0 0
71 0 2 2.03 12.034055349992727 11.842939552492732 7.463064282020972 0 0 0
73 0 3 -1.13 15.20194590238089 11.81117385589601 7.297869408701019 0 0 0
111 0 2 2.03 18.236944168828344 11.671144390307536 7.843633182448652 0 0 0
114 0 3 -1.13 18.584735749982187 14.834446229770009 7.640784798114806 0 0 0
151 0 2 2.03 24.703245569087308 11.59178306998536 7.982000810935792 0 0 0
113 0 3 -1.13 21.75094697025952 11.448490191052931 8.229881606794695 0 0 0
11 0 2 2.03 5.7348627722196435 24.138073794945747 7.590309424556352 0 -1 0
133 0 3 -1.13 2.640604659869129 24.321418361353185 7.193173985867028 1 -1 0
4 0 3 -1.13 5.541451312405211 20.826288028006765 7.601159904459281 0 -1 0
1 0 2 2.03 5.635845495322061 17.954160821504967 7.951704480782437 0 -1 0
3 0 3 -1.13 8.859596665327745 17.777158410254163 7.463960026077581 0 -1 0
53 0 3 -1.13 15.326320972568155 24.46383740607128 7.187493088110171 0 -1 0
51 0 2 2.03 12.27685898222922 24.153613153056472 7.514021913009811 0 -1 0
44 0 3 -1.13 12.278399937594028 21.118004864700413 6.952859273728251 0 -1 0
41 0 2 2.03 12.22729282504436 18.04633959728683 7.4766632920779506 0 -1 0
43 0 3 -1.13 15.44392641721056 17.9274476471129 7.683470948458195 0 -1 0
13 0 3 -1.13 8.78695222795252 24.05870689553426 7.643215478924493 0 -1 0
91 0 2 2.03 18.180439883774945 24.188635787108876 7.702586801132777 0 -1 0
84 0 3 -1.13 18.38045515367988 21.185606224305516 7.111646300266851 0 -1 0
131 0 2 2.03 24.763909312586133 24.48882532232893 7.720629893099328 0 -1 0
81 0 2 2.03 18.746498852224253 18.015959225971447 7.449826657145496 0 -1 0
124 0 3 -1.13 24.963526863923235 21.242816000098028 7.869553258968407 0 -1 0
83 0 3 -1.13 21.65224034089553 18.312747285516156 7.063309648251214 0 -1 0
121 0 2 2.03 24.566829981981975 18.238749072833333 7.714148381078401 0 -1 0
93 0 3 -1.13 21.754081539233535 24.435148591692798 8.21274880850998 0 -1 0
132 0 1 1.36 2.6602828472635345 1.8832771589634627 10.298277386372142 1 0 0
25 0 3 -1.13 6.029508530741953 5.862356010875132 10.843079951399053 0 0 0
19 0 3 -1.13 5.899720185813905 2.261629164413416 13.478719037154587 0 0 0
26 0 2 2.03 5.990656701191956 5.521578519866618 13.739426714554266 0 0 0
148 0 3 -1.13 2.1880771829936356 4.969867889182684 13.589748776791671 1 0 0
147 0 1 1.36 2.4001098687837037 7.9855054295161905 16.301294268701138 1 0 0
12 0 1 1.36 8.996217906972316 2.044039889941367 10.080725554921562 0 0 0
28 0 3 -1.13 8.944483008137285 5.560509783335158 14.047714772143472 0 0 0
52 0 1 1.36 15.512744839711246 2.197862482441527 10.330108655364299 0 0 0
65 0 3 -1.13 11.238599349314086 5.567676467338186 10.39661663235312 0 0 0
59 0 3 -1.13 12.046912870905631 2.028611305530335 12.859392350190065 0 0 0
68 0 3 -1.13 15.13960331761187 5.333528792738374 12.821064846729508 0 0 0
66 0 2 2.03 11.919878152990124 5.226221410322177 13.501183764032366 0 0 0
22 0 1 1.36 9.119221385481728 8.673997502002713 9.942820321510021 0 0 0
62 0 1 1.36 15.04940143344081 8.476360787689469 9.915491399967221 0 0 0
69 0 3 -1.13 12.310377037366496 8.25073697519096 13.901798708946657 0 0 0
57 0 1 1.36 14.978231163824246 1.920786131723017 15.897966731606216 0 0 0
99 0 3 -1.13 18.295879840496383 2.2490865290937743 12.846415114389373 0 0 0
106 0 2 2.03 18.29673773400573 5.403233651876296 13.665030897453452 0 0 0
105 0 3 -1.13 19.21210984047625 5.686304982357137 10.954734892973121 0 0 0
92 0 1 1.36 21.688718208432135 2.266037032099636 10.366228000265137 0 0 0
145 0 3 -1.13 24.135296491744818 5.402313949098431 11.05341675173979 0 0 0
97 0 1 1.36 21.325578758060026 1.9632860579172622 16.02420693431887 0 0 0
139 0 3 -1.13 24.31054217153662 2.234981949489716 14.194066284785054 0 0 0
146 0 2 2.03 24.553785385718616 5.215149422602539 14.148022150954143 0 0 0
108 0 3 -1.13 21.308182178058672 5.290727422937798 14.566288225597008 0 0 0
29 0 3 -1.13 5.534541531317995 8.383194063012946 14.038245856029324 0 0 0
142 0 1 1.36 3.023468264838652 8.886498754814813 9.87754084015268 1 0 0
152 0 1 1.36 2.290612634985733 14.739262998357537 10.318967265900344 1 0 0
35 0 3 -1.13 5.351163814966741 11.380690947597746 10.788906540970917 0 0 0
36 0 2 2.03 5.627548819468221 11.463104279133239 13.977431696237788 0 0 0
39 0 3 -1.13 5.854531865832562 14.795042054138102 13.548918586346513 0 0 0
158 0 3 -1.13 2.7980460454032436 11.50125191285398 14.898372297435904 1 0 0
155 0 3 -1.13 0.18908117793652737 11.337824632353328 11.021969137320152 1 0 0
33 0 3 -1.13 8.840338662344793 11.690057852049117 7.681834952645718 0 0 0
74 0 3 -1.13 12.158374283159151 14.825708024598832 7.728821495050429 0 0 0
32 0 1 1.36 9.020375390156243 15.286171274148538 10.365519443717425 0 0 0
38 0 3 -1.13 9.168936418566394 11.081273112043402 13.152816305144388 0 0 0
72 0 1 1.36 15.306821583379836 14.98889913313819 9.954544348458404 0 0 0
75 0 3 -1.13 12.344996435358397 11.086027927639929 10.341387552745228 0 0 0
76 0 2 2.03 11.987120547391054 11.201292067291762 13.45433318916991 0 0 0
78 0 3 -1.13 15.045958866418847 11.849935369318054 13.821799531195067 0 0 0
79 0 3 -1.13 11.706665471373519 15.016838835121687 12.945452455622197 0 0 0
27 0 1 1.36 9.207659518151349 8.884829698353792 16.00503190309408 0 0 0
37 0 1 1.36 9.357856928238931 14.652007796255544 16.23462715571319 0 0 0
144 0 3 -1.13 24.940306844938238 8.469340531036806 7.855158359433532 0 0 0
154 0 3 -1.13 24.438909907203566 14.57737232294409 8.051383566317567 0 0 0
102 0 1 1.36 21.86831046260179 8.142957243634676 10.383189368033873 0 0 0
109 0 3 -1.13 18.12267660712094 8.72102482212841 14.216780391318277 0 0 0
149 0 3 -1.13 24.60226717769804 8.543949136909239 14.055000246543848 0 0 0
115 0 3 -1.13 18.05264525553726 11.858941893749764 10.589463731400391 0 0 0
119 0 3 -1.13 18.55821196252879 14.890935156059868 13.440929421298899 0 0 0
116 0 2 2.03 18.258319431437513 11.768851148491969 13.635085786885723 0 0 0
112 0 1 1.36 21.317886342355475 14.66001047312675 10.512455666385529 0 0 0
118 0 3 -1.13 21.371460518411023 11.642142424356056 13.372149496680263 0 0 0
156 0 2 2.03 24.674496762923795 11.495694555152587 13.982324028952524 0 0 0
159 0 3 -1.13 24.735949750500392 14.712403294822332 13.714261468049344 0 0 0
107 0 1 1.36 21.4307516437703 9.041722810471992 16.13137503216792 0 0 0
117 0 1 1.36 21.266824853602028 14.335871801854067 16.158829844741355 0 0 0
123 0 3 -1.13 2.3944809845369273 17.757003808364992 7.920312150815054 1 -1 0
15 0 3 -1.13 5.3456957904634335 23.835598314789877 10.652444472226938 0 -1 0
138 0 3 -1.13 2.707089253679562 24.469027709991266 14.298370832159124 1 -1 0
16 0 2 2.03 5.681815464887377 24.30144779800614 13.545655588143143 0 -1 0
122 0 1 1.36 2.706175495901599 21.307946564628036 10.143906894909758 1 -1 0
5 0 3 -1.13 6.184018739871891 18.22141902138906 10.909177120352554 0 -1 0
9 0 3 -1.13 5.751841609531194 20.934301190714592 13.972191349072244 0 -1 0
6 0 2 2.03 5.8461173089108005 17.70234183537593 13.822089225588474 0 -1 0
128 0 3 -1.13 2.52965551706117 17.747789880082177 12.922893445315712 1 -1 0
2 0 1 1.36 8.626413567562176 21.112580939614734 10.10459918390192 0 -1 0
8 0 3 -1.13 8.987654856199542 17.900645917543795 14.522510493831382 0 -1 0
18 0 3 -1.13 8.872688193829994 24.04452168199019 12.639286725547228 0 -1 0
58 0 3 -1.13 15.39604279879043 24.043540571860017 14.319690846485319 0 -1 0
42 0 1 1.36 15.063491245655882 20.76971460753544 9.878149519218901 0 -1 0
56 0 2 2.03 12.06028468571801 24.210262502713967 13.308568415611688 0 -1 0
55 0 3 -1.13 12.640642567067262 23.750736230506618 10.494715467674999 0 -1 0
45 0 3 -1.13 11.986336309919007 18.437893229846807 10.375807893811729 0 -1 0
49 0 3 -1.13 12.123825437344497 20.95750362179186 13.84077852558671 0 -1 0
46 0 2 2.03 11.988832479011512 17.949245533208106 13.401184974108276 0 -1 0
48 0 3 -1.13 15.43429989204605 18.26637537964728 12.729078517083963 0 -1 0
135 0 3 -1.13 0.28242753482119026 24.600760660779383 10.647454795022476 1 -1 0
95 0 3 -1.13 18.019140462488746 23.66564190214589 10.55925627257301 0 -1 0
89 0 3 -1.13 18.79998032709976 21.010389738620027 13.633991743768528 0 -1 0
96 0 2 2.03 18.534414027957297 24.09799977650614 13.552610925365054 0 -1 0
86 0 2 2.03 18.56406944995366 17.927039326608504 13.485525614130026 0 -1 0
85 0 3 -1.13 18.980999428300585 17.954117397654745 10.345026843738491 0 -1 0
82 0 1 1.36 21.464247544594247 20.8870837707857 10.18751707490736 0 -1 0
136 0 2 2.03 24.746284767812355 24.274994520938684 13.786418739980524 0 -1 0
98 0 3 -1.13 21.751178493349798 24.457563316583773 13.077774995309689 0 -1 0
125 0 3 -1.13 23.763198100424752 17.87497442579592 10.658473959475026 0 -1 0
129 0 3 -1.13 24.809500584497012 21.265776152099775 13.44075534098828 0 -1 0
126 0 2 2.03 24.58921024195275 17.952794608088396 13.594730546831745 0 -1 0
88 0 3 -1.13 21.57171975390474 17.825215950052105 14.554840598721546 0 -1 0
87 0 1 1.36 21.75974821328768 21.05391686334594 16.328779102962677 0 -1 0
137 0 1 1.36 2.7485276425132414 2.603111566377097 15.87209131948791 1 0 0
30 0 3 -1.13 5.334654994833468 4.97571480541158 16.77160286436907 0 0 0
150 0 3 -1.13 25.09635986232964 5.465782003291727 16.99140968824353 0 0 0
17 0 1 1.36 8.919237034371278 2.1803329441305372 16.06272515987995 0 0 0
67 0 1 1.36 14.942770977326916 7.474170649299005 16.11800802530877 0 0 0
70 0 3 -1.13 12.29050641698188 4.405878213624313 16.343542365441344 0 0 0
178 1 7 0.064510841 13.311997817532587 5.859491928852629 19.14141927085013 0 0 0
166 1 4 -0.037446476 13.148351622613365 6.933671385328646 19.1682423615735 0 0 0
179 1 7 0.1665826817 15.611266843637877 6.2957916939376455 19.40309551321102 0 0 0
167 1 5 -0.3536773896 15.542607095375502 7.281489636542146 19.188177071579656 0 0 0
175 1 7 0.0623468399 11.003521532842155 6.716697785862376 19.11971283555848 0 0 0
161 1 4 -0.0601209856 11.837261713077705 7.413337306349811 19.151105091274736 0 0 0
165 1 4 0.0525861939 14.241531399232136 7.814430454506519 19.216324576123704 0 0 0
168 1 4 0.0525861939 16.746072188178164 8.003037651445146 19.281221963833836 0 0 0
162 1 4 -0.0609891785 11.600694073669725 8.783416070236731 19.16697355329387 0 0 0
169 1 4 -0.037446476 17.959765061530803 7.295998873747863 19.292912962456622 0 0 0
180 1 7 0.064510841 17.960328674965115 6.209538165457801 19.261867819320482 0 0 0
110 0 3 -1.13 17.313054955527942 4.701456380082711 16.316101326738533 0 0 0
181 1 7 0.0623468399 20.11253223053197 7.40266214668752 19.355733137582867 0 0 0
170 1 4 -0.0601209856 19.18342259415312 7.966546753700238 19.341450608349756 0 0 0
157 0 1 1.36 2.4913826200475477 15.301168980867322 15.964787210742928 1 0 0
40 0 3 -1.13 6.8585869555353005 11.859712130966294 16.599866898616902 0 0 0
176 1 7 0.0623116014 10.582387416114386 9.163039069234355 19.151784206213318 0 0 0
77 0 1 1.36 15.606414370804941 15.081554590911079 16.120235975015394 0 0 0
80 0 3 -1.13 11.573399207546274 11.765526470054382 16.54667398146157 0 0 0
177 1 7 0.0635434461 12.476695537601223 10.74106306647872 19.19626917600964 0 0 0
163 1 4 -0.0461249666 12.675909080979258 9.671668889782804 19.193283728517937 0 0 0
164 1 4 0.0357917212 13.99704987188087 9.198090795085777 19.210393839662334 0 0 0
174 1 6 -0.0857233656 15.305760000051546 10.411967197140743 19.230740711666186 0 0 0
173 1 4 0.0357917212 16.780694898664215 9.407717116465134 19.282522373919942 0 0 0
172 1 4 -0.0461249666 18.01518680186258 10.073749926893408 19.331632521817216 0 0 0
183 1 7 0.0635434461 18.0516886884718 11.160895000545297 19.340725855809033 0 0 0
160 0 3 -1.13 24.005612174888782 11.658705431704155 16.72829474637251 0 0 0
120 0 3 -1.13 18.768100690716622 12.273596035826746 16.682425234729923 0 0 0
171 1 4 -0.0609891785 19.211140987610097 9.356527901353964 19.364169185335758 0 0 0
182 1 7 0.0623116014 20.160579478948648 9.88433190208368 19.399967100924062 0 0 0
127 0 1 1.36 2.6753876039608153 20.645517305618462 16.117367845735277 1 -1 0
10 0 3 -1.13 4.977581422158823 17.832646124140165 16.506159673846863 0 -1 0
20 0 3 -1.13 6.571702780076096 24.49008998590527 16.414093095905113 0 -1 0
7 0 1 1.36 9.002179253862113 21.904906370075775 15.82111719807732 0 -1 0
47 0 1 1.36 15.465658103640404 20.61578297378346 15.609845143469089 0 -1 0
60 0 3 -1.13 11.523197403598411 24.777021586643357 16.25954853316202 0 -1 0
50 0 3 -1.13 12.858661581799778 17.4919883176275 16.183351571728352 0 -1 0
130 0 3 -1.13 0.18192739029876392 18.11899160416715 16.482333947667843 1 -1 0
90 0 3 -1.13 17.709330342039134 18.028360987892704 16.600310866488748 0 -1 0
140 0 3 -1.13 24.16270244797281 23.654402645800605 16.652640133351323 0 -1 0
100 0 3 -1.13 19.10314585009853 24.226893693999184 16.373865572046242 0 -1 0

Velocities

14 0.0005874505396712033 -0.00025137895618178465 -0.0001945147019952261
21 -0.0009158993783611048 -0.0015644087063080624 0.002035428941137142
143 0.00034861205997299867 0.00017111276237553722 -0.0011494491870880916
23 -0.00014744319965898342 0.0022546469502872563 0.0015191020950785475
61 -0.0001373486838757304 -0.001410724001159282 -0.000722576193489712
63 0.00047096547974826244 0.00137174419286949 -0.001346754416194964
64 0.0022480418736086465 -0.002944851487875187 -0.0005695064649024027
54 0.0002622500478157274 -0.0014616646666969092 0.0009340245677546819
101 -0.0008243401908528509 0.0012431844951170154 0.00036780452470034595
134 0.0001508403108857259 -0.0004597888944351927 0.00015383989249218114
141 0.0018354755193290455 -0.00032682319922918687 0.0019087498458864823
103 -0.0009351646286289143 0.0006535192848479005 0.0010420107185393477
94 0.00033571039019036295 -0.0014540615688435064 1.8751480867305797e-05
104 -0.00028584510373309645 -0.0006925760153140661 0.0008688991177360935
24 0.0012280623497818997 -0.0014500467452925022 -0.002575521183190354
31 -0.0010713020155972842 -0.00014579865881054495 0.0005231764526364708
153 -0.0003361164166851197 -0.0005605407437371055 0.0014706193192234214
34 -0.0009552708587312433 0.0001606914196039304 -0.0003329654296274473
71 -0.0016074799507644205 -0.0006904248569385737 0.0012307731270718063
73 0.00033089030150827584 0.0011910820229906814 -0.0012343363410944898
111 0.00011164172708239818 0.0009459376740433282 0.0006512462360159885
114 -0.0017042654876257596 0.00034057169772880633 0.0019013730432257095
151 0.00131214758826426 0.0011261786790874731 0.00018818417714368236
113 -0.0005455959613765098 -0.0008504313267333457 0.0024903679725038785
11 0.0004475723147197524 5.1088928969287885e-06 -0.000824703028718456
133 -0.00026681160484867824 0.0021936663430857095 0.002118708777151345
4 -0.0011679663986843664 0.001546064610403912 0.002492412950241693
1 0.0002922346818086856 0.00037629353373445045 2.8097913051572545e-06
3 -0.0019396274250281368 -1.954859651841638e-06 0.0015729077807536856
53 0.00010862629099387483 0.0023284874502905134 -0.0012346387681402683
51 0.002023705322022851 -0.0005992551498949203 -0.0005011243034097849
44 -0.0018153311569301413 0.0034951588524205347 -0.0037353612794732813
41 -0.0005816023489119599 -0.001278397844521449 0.0011209963590952624
43 -0.000876801431972985 -0.0005663340743834093 0.0008192551262879461
13 -0.0008007631471339504 0.001853344606557945 0.0020351581801291477
91 -2.1486134496896115e-06 0.0009900851638697512 1.729481847804226e-05
84 0.0007844721411029819 -0.0010580581733658902 -0.0022473164811337557
131 0.000825550135238612 -0.0024851828144436656 0.0011533427109159625
81 0.0006439445360145534 -0.0018183412910705945 -7.44867743237044e-05
124 0.002195823802443954 0.0015373664906165893 0.0003813501817290959
83 0.0016508070703967715 0.001821182539078202 0.0010105224219515785
121 0.0016799743901981686 0.0017462683436774683 -0.0007875189368946198
93 -0.0020980933199052534 -0.00018105516276283715 -0.0019552420737934764
132 -0.00022916383467633502 -0.0004225243593195652 -3.743976159715394e-05
25 -0.0005882357474399078 0.0006058774996646947 -0.0012152119540241911
19 -0.001305794021130074 -0.0005967077678745309 0.0018900993455983472
26 -0.0007820059903473315 0.001678335508987248 -0.0013035780325500398
148 0.0008121107806296327 -0.00044264022219119345 -0.00021759796918371759
147 -0.0017940829425215638 -0.0024699811956407913 -0.0013905845250096632
12 0.00024190410745212278 0.00015007020794247536 -0.0009400456150165708
28 -0.0006933100731596755 -5.1790065756186145e-05 0.0012879388993497073
52 0.0021674607403406178 -2.499662394117108e-05 0.0012721066571867712
65 0.0005538040335686763 0.0021644806939937725 0.0002042935847593782
59 -0.001601719919115337 -0.0005157980101323739 0.0002693946660924948
68 0.00029592837333565394 0.001942443291457066 -0.002524156511790128
66 0.0002459689120919662 -0.00033612609744769663 0.0006325966578106342
22 0.0009355901140374973 0.0002998638067689588 -0.002466548107714994
62 -0.001463552182542001 -0.00022159483610863814 -0.001285176837696589
69 2.348775890408452e-05 0.0019389049533506072 0.001324524707110449
57 0.0005304892076712812 0.0012480660058255373 0.0012091812318126543
99 0.0030855811988536853 0.000443542201367655 0.0016222986164106269
106 0.00027533330963144733 0.0005136660842396415 0.0007184522658366184
105 -4.143792571781222e-05 -0.0004568165895589518 -0.00019002515392712574
92 -6.959404141365293e-05 0.0032485467154980147 -4.908778419400871e-05
145 0.00025420804960663837 4.308878315782337e-05 0.0008292454979976136
97 -0.0007482314476936014 -0.00011358940983088632 0.0019269950656317107
139 8.24035308565987e-05 -0.0004173166575259656 0.001283857845617523
146 0.0010594822450826847 0.0004462925623517668 0.00060008267047666
108 -0.00029159410572256465 0.0013567398696332433 8.145279244891946e-05
29 -0.0013535697180919529 -0.0009707309977514017 4.093655978190736e-05
142 -0.0017327920257506108 0.0007828322205120289 0.0009331270244667854
152 -0.0019602495947445564 -2.432893980439587e-05 -0.0014895271941187008
35 -0.0008462977490772874 0.0005209635100706818 0.0016061116733537084
36 -0.00098284297753429 0.0005998501632343727 -5.656212008766991e-05
39 -0.0012055395263071435 0.0007460755865778628 0.001618795704935229
158 0.0023216712638994778 0.0010507965294603476 0.0016819438612614352
155 -0.004466342510072695 0.0009623730698392847 0.0004522107426441173
33 -0.0015817985966426534 0.0032710314565764344 -0.00042640160946126214
74 0.0013011708998972868 -0.000502203550259964 -0.0014174125019139428
32 -0.00014977335537761006 -0.0004490310008563917 0.000173979483327175
38 0.0003308017739252741 0.0015803468470866437 0.0013959426505215026
72 0.0008685724140304159 -0.0007519491874914832 0.0016077723591545758
75 -0.0008983907266647725 0.003438712071558699 -8.541326968376695e-06
76 0.0008175310386712436 0.0022512146971340277 -0.0018474160388643652
78 0.0011299664474650137 0.0008798955391680066 0.0008738505109436729
79 0.001442600267788554 0.0007434024368964701 -0.0012310377075330375
27 0.0001459710150805421 -0.0017396792730317034 0.0021528421143852334
37 -0.00068168268611187 -0.004099840637314933 -0.0012318150811978293
144 1.6577251242775537e-05 -0.0021893236731949203 -0.0001020858929945143
154 0.0018163257742419107 -0.0012538949590789816 -0.0011260534519979147
102 0.0015780594642078281 0.0003847636793708324 0.0008199963131228392
109 -0.0017735090488458828 -0.000756187722735115 -0.0007849213520189084
149 0.0005980404860417291 0.0012709179314667174 0.002104808251966613
115 0.0009852837124329772 -0.0015573480769891877 0.00385239709497144
119 0.00036474665739674354 -0.003837549828432301 -0.0014245308630243634
116 0.00029433994983494953 -0.0003873663952334215 -0.0017012483240670226
112 0.0012352427107512143 0.0014759767626213972 -7.406599510874289e-05
118 -0.0008056967129425497 0.0008177808116727229 -0.001651165324636596
156 -0.00011328182920162773 0.0001426333815704551 -0.0011185340640596966
159 -9.433929715952671e-05 0.00021181670114825207 -0.0004141097357917582
107 0.000299948518276606 0.0014636047158307316 -0.00014061033384839467
117 0.0024594740509028927 0.00031218792273897123 -0.001153050237824905
123 0.000825623839941882 -0.00024887869588211524 -0.00024096270520222707
15 -0.0010608143972132204 -0.0021641389494357387 0.0013196785211085893
138 -0.00040891054369755525 -0.0027048942887513694 0.001053993860717786
16 -0.0004763186075958295 0.0007545093683512278 -0.0008914330042420109
122 -0.00015311557542435777 0.0006831371555125298 0.0018498272544450016
5 0.001406641264661245 -0.0002604478223826777 -0.0018101021540078816
9 -0.0010423071217307578 0.0011175043718541344 0.0007396891165053873
6 0.0007949599470386305 0.0004933743520182149 -4.887721980111293e-05
128 -0.0014234870986667004 -0.0009122293355880525 -0.0018865599539074943
2 0.0005886051672005346 -0.0025735986209334304 0.000801133582522236
8 0.00015709296028666213 -0.0005496420282867756 -0.0018995435012989469
18 -0.00031151555893754333 0.002400264125412496 -0.00047499143702147773
58 0.0024289541231380133 0.0006114504689587358 -0.00022751675793032607
42 -0.0021847851914230994 -0.000897663873379053 0.0017183650793473305
56 0.0007787176523448638 0.0001127392036739482 2.6341399883952947e-05
55 -0.001984551048388534 -0.000681449108527793 0.0013681116617131567
45 -0.0005666902759998042 -0.00316704990272632 0.0026355583329868777
49 0.001481463420632557 -0.0004406048475114359 -0.0007596876476760322
46 0.00044982343663570515 -0.0008192900711313954 -0.0006216831900297871
48 -0.000631147369113125 -0.002587414661582288 0.0027295820888622526
135 1.7748696766293327e-05 0.000890200567265642 -0.000543614749703959
95 0.0021280523461092373 -0.0009786181807100555 -0.00024133936410261324
89 0.000833292699254418 0.0003017395719190556 0.0006467841945190351
96 0.00035163017898838257 7.298561552339593e-05 -0.0009727450552060848
86 -0.0009908985181038448 0.00020255742123286873 -0.0019953920801981384
85 -0.0003315554796427195 -0.0015446544064820907 -0.0008801819949977095
82 0.002220865634045504 0.0004970930177489118 -0.00015729552229509466
136 -0.0007368068833089437 0.0006240011266607563 -0.001340289454044336
98 -0.0005409065748839708 0.001184530466397203 0.0005246500750538356
125 -0.0003779915144014623 -0.0035038010885237764 0.002850258027692336
129 -0.0003302386239964693 -0.0010897420870377298 -0.000676003725233249
126 0.001198558832098855 -0.0019211492527190929 0.001171744562040695
88 0.0008847227404835363 -0.0003056781529587301 -0.0006644951526623457
87 -0.002082914088984095 0.00013841868492637445 -0.0022519525502514024
137 0.00023508774234213458 0.0006498729509442762 0.0010356828235333847
30 -0.0007767142856064617 0.0008821567200677988 -0.0025251893508224468
150 -0.0015960625696170366 0.0001792295775228454 -0.0014169318140254067
17 -0.0013633619517956354 -0.001839344914131836 0.0009024804022686057
67 0.0008184528382700456 -2.0074531183477823e-05 0.0011959616582640311
70 0.0026402661213924404 0.0010248782652127685 -0.0006788832963370405
178 0.000532359618176589 0.00020860138151136156 0.0024673755484269392
166 0.0007881242936634422 0.0002637583720014175 0.0018189196972102264
179 0.0007194723534352579 -0.00014860755172232596 0.001418857194454371
167 0.0008746740727439965 -0.0002734357766645262 0.000796765230324787
175 0.0007221546209922129 0.0007249230489492397 0.002672692285896099
161 0.0008926713081493533 0.0005538548653706415 0.001940226409198789
165 0.0010064934607838018 4.39862062408789e-05 0.0008798941217666663
168 0.0010713762291673788 -0.000489136997252265 -7.470003168877822e-05
162 0.0012128025284614471 0.0006186034004450636 0.0011223837101033527
169 0.0009127679962317309 -0.0007604133219211368 -1.4927468239894437e-05
180 0.0006527796991859322 -0.0007808536835762386 0.0006956866464312506
110 -0.0003838385810136158 -0.0006162520699608006 0.0002509280702811525
181 0.000958129430663799 -0.001214052609826413 -0.0007991652629158488
170 0.0010829785980104008 -0.0010098732913821503 -0.0008597280470290349
157 -0.0005437078854299939 -0.0008581308628909715 0.000708451336644895
40 -0.0025545098908370018 0.0017439869720798865 0.000924009581338334
176 0.001295004637166048 0.00084268827188508 0.0012119738919496661
77 0.0019890895317088843 -0.00030558683679077377 -0.0011906752935444194
80 -0.00029141174496108923 0.000668005826387881 -0.0005910428365856629
177 0.0016724219931106865 0.00043645124252675185 -0.00044910359102127387
163 0.0014256682237720397 0.00038871576951516587 0.00018441755910228235
164 0.0013225112704008857 9.629166300942522e-05 5.579231405689244e-05
174 0.0016082311072299117 -0.00019115808520723916 -0.0011727001115029846
173 0.001394624406228078 -0.0004962430456779107 -0.0010051817016645764
172 0.0015639873772061413 -0.0007478183663355146 -0.0018506240450456193
183 0.0018168476411604424 -0.0007502578704029367 -0.002573987099752044
160 0.0012331435574232947 -0.00064557944617105 0.003153485208161163
120 0.00041289416944594536 0.00042651297621260135 -9.122336873769864e-07
171 0.0014099570860656118 -0.0010013800981191075 -0.0017783021688038798
182 0.001543134954728622 -0.0011961551655407876 -0.002438707516070876
127 -0.0004660975469004566 0.0003578041001090672 -0.000387921279869615
10 0.0016106084167051681 -0.001830590061799223 -0.0024930820273018047
20 0.00010041381913441141 -0.0003295969232039838 0.0005611337464748404
7 -0.0012644963379818634 -0.0017738071129114507 0.0012523058830682628
47 0.0014743786866154632 0.000931583802635861 0.0009453248724540799
60 -0.0005001288536468388 0.0007267443632967573 0.0028499620883433085
50 -0.00014567616275659406 0.002292849999064972 0.0009646372692603756
130 4.1483819300156726e-05 -0.0002499999447458653 -8.652584270959715e-05
90 0.0014533221365062973 0.0007133695508344204 0.000677904353407411
140 -0.0027398807604726155 -0.0014621725918606467 0.0009431014831903728
100 0.0010398944062249272 9.37309676392075e-06 -0.0005198560449430032
