LAMMPS data file via write_data, version 22 Jul 2025, timestep = 13, units = real

183 atoms
7 atom types

0 25.2 xlo xhi
0 25.2 ylo yhi
0 32 zlo zhi

Masses

1 132.90545196
2 207.2
3 126.90447
4 12.011
5 14.007
6 32.06
7 1.008

Atoms # full

1 0 2 2.03 9.181561534515585e-06 5.537389410361795e-05 0.3988131811681349 0 0 0
2 0 1 1.36 3.150351959714632 3.1504342527754248 2.795192623583546 0 0 0
3 0 3 -1.13 3.150106311296433 1.2109649929732254e-05 0.334996399423026 0 0 0
4 0 3 -1.13 3.260432676570825e-06 3.1500364771191602 0.33499136043615885 0 0 0
5 0 3 -1.13 2.1398434751894627e-06 4.818496348235525e-05 3.3167540386604095 0 0 0
6 0 2 2.03 2.4657581279320492e-05 0.0001823882565190153 6.315955305468176 0 0 0
8 0 3 -1.13 3.1502377482643453 0.00040321504605276496 6.325702584185273 0 0 0
9 0 3 -1.13 3.87701744087266e-05 3.1503098297169783 6.326633125427375 0 0 0
11 0 2 2.03 5.510613857768486e-06 6.299859802212288 0.3985354206955333 0 0 0
13 0 3 -1.13 3.1502047866329637 6.300023874318522 0.3353631247474678 0 0 0
15 0 3 -1.13 25.199854985172077 6.299985801093603 3.3164502266661726 -1 0 0
16 0 2 2.03 5.804728356142406e-06 6.3000410976170516 6.315333998514572 0 0 0
18 0 3 -1.13 3.149890310377736 6.300770003571997 6.324681477879883 0 0 0
41 0 2 2.03 6.299999346688777 9.869746250742709e-05 0.39874203468426944 0 0 0
44 0 3 -1.13 6.300007670743261 3.1502587966799225 0.3358505940482006 0 0 0
45 0 3 -1.13 6.300156228216013 25.19983486854843 3.3166659415442643 0 -1 0
46 0 2 2.03 6.300387799122994 0.0002331856860808205 6.315500893651436 0 0 0
49 0 3 -1.13 6.301387409437164 3.1500330198271103 6.325691108178066 0 0 0
51 0 2 2.03 6.300470179558533 6.300360627121416 0.39895664900311345 0 0 0
55 0 3 -1.13 6.301000920416606 6.301512307093442 3.3172667684553594 0 0 0
56 0 2 2.03 6.301417614993114 6.301318822351326 6.316786165192546 0 0 0
42 0 1 1.36 9.450420234846492 3.150208875568242 2.794730419610319 0 0 0
43 0 3 -1.13 9.44981309076264 25.199988233222765 0.3349718529761167 0 -1 0
48 0 3 -1.13 9.45026533006018 0.00029823950742912335 6.326681223792373 0 0 0
53 0 3 -1.13 9.44995566086026 6.299843802676156 0.33528064443272904 0 0 0
58 0 3 -1.13 9.450019971379465 6.3011634352292845 6.328251090742616 0 0 0
81 0 2 2.03 12.599991199135458 3.072618278291975e-05 0.3979653101568241 0 0 0
82 0 1 1.36 15.749568516120123 3.150241453909873 2.7946630989828227 0 0 0
83 0 3 -1.13 15.750185167353946 25.199991934182137 0.3349807199043718 0 -1 0
84 0 3 -1.13 12.600007211894383 3.149467853813749 0.3344039682405758 0 0 0
85 0 3 -1.13 12.599974511826344 25.198982563413043 3.316310259868519 0 -1 0
86 0 2 2.03 12.599977730095889 5.5675625172608104e-05 6.315453250638533 0 0 0
88 0 3 -1.13 15.749734533870205 0.00030683487094196945 6.3265791511905904 0 0 0
89 0 3 -1.13 12.599955799515003 3.1498209575842395 6.325124437694721 0 0 0
91 0 2 2.03 12.599966567704161 6.300221488792088 0.3978719953442154 0 0 0
93 0 3 -1.13 15.750065785908003 6.29984847500276 0.33532266677943623 0 0 0
95 0 3 -1.13 12.599945631241232 6.298315280783076 3.316103016345455 0 0 0
96 0 2 2.03 12.600031482646756 6.300441708612909 6.314566869001946 0 0 0
98 0 3 -1.13 15.75009506128329 6.301190190269521 6.327835881855394 0 0 0
121 0 2 2.03 18.9000004878482 0.00010116753965807656 0.39877504385783624 0 0 0
122 0 1 1.36 22.049660973826622 3.1504605183980647 2.7951224260541183 0 0 0
123 0 3 -1.13 22.049895940678635 1.8577964723591135e-05 0.33498062295627035 0 0 0
124 0 3 -1.13 18.899983931059715 3.150281755845128 0.3358082035973849 0 0 0
125 0 3 -1.13 18.899867203409798 5.7778889143302365e-06 3.3166870440565304 0 0 0
126 0 2 2.03 18.899612243682075 0.00024818432206961076 6.315539851881935 0 0 0
128 0 3 -1.13 22.04976509203032 0.00038736606918210784 6.325656122206267 0 0 0
129 0 3 -1.13 18.898638975028334 3.150096817371666 6.325973907213622 0 0 0
131 0 2 2.03 18.899563780644534 6.300346604084401 0.398980623910398 0 0 0
133 0 3 -1.13 22.049783595928556 6.300029656295124 0.3352082107093371 0 0 0
135 0 3 -1.13 18.899231313781936 6.301489051511912 3.3172930021280265 0 0 0
136 0 2 2.03 18.8985927418344 6.301342667822594 6.316951678255229 0 0 0
138 0 3 -1.13 22.050037928382718 6.30075057787744 6.324969856758683 0 0 0
12 0 1 1.36 3.150203085958913 9.450165050954515 2.7940621206598 0 0 0
14 0 3 -1.13 3.952011151241094e-06 9.44985713842065 0.33488941947055273 0 0 0
19 0 3 -1.13 1.8340048682327823e-05 9.450261785870556 6.326665557199222 0 0 0
21 0 2 2.03 8.75892273133727e-06 12.59996733768509 0.39828996814503503 0 0 0
22 0 1 1.36 3.150330232121315 15.749514090324915 2.7941918049916645 0 0 0
23 0 3 -1.13 3.1496196985263984 12.600005810997052 0.3341790380398962 0 0 0
24 0 3 -1.13 3.948657898515591e-06 15.750163940956597 0.334900321058501 0 0 0
25 0 3 -1.13 25.19993274465347 12.599912248798498 3.316525176584848 -1 0 0
26 0 2 2.03 1.8564287744517555e-05 12.59983550328619 6.315990268944217 0 0 0
28 0 3 -1.13 3.1499928062043834 12.599530720801775 6.326508960521081 0 0 0
29 0 3 -1.13 5.181497229966807e-05 15.74965980569668 6.326162066478376 0 0 0
54 0 3 -1.13 6.299849055552411 9.4500762810141 0.33525894719084953 0 0 0
59 0 3 -1.13 6.301444963956523 9.450298343081961 6.329604859871957 0 0 0
61 0 2 2.03 6.300272788295267 12.599820576344465 0.3985044411610103 0 0 0
64 0 3 -1.13 6.299892070964939 15.749924364460599 0.3353297853763778 0 0 0
65 0 3 -1.13 6.298028677456475 12.59965515050534 3.316795742056936 0 0 0
66 0 2 2.03 6.300600482041432 12.599605160407473 6.316360761231218 0 0 0
69 0 3 -1.13 6.301453998665996 15.749774074022136 6.328055129068691 0 0 0
52 0 1 1.36 9.449910376426756 9.449797489394307 2.79700754392909 0 0 0
62 0 1 1.36 9.450012884335633 15.750054741749656 2.7961283243259407 0 0 0
63 0 3 -1.13 9.449406423440207 12.600057738439615 0.3350304535427958 0 0 0
68 0 3 -1.13 9.449424432591345 12.59937397518118 6.322850112678135 0 0 0
92 0 1 1.36 15.750083175034131 9.449766793292273 2.7968845476794373 0 0 0
94 0 3 -1.13 12.600009242254457 9.449506939007179 0.334717536425995 0 0 0
99 0 3 -1.13 12.599966212708372 9.449646188686943 6.321990340607939 0 0 0
101 0 2 2.03 12.599965122141768 12.599737351047578 0.39648314635693416 0 0 0
102 0 1 1.36 15.749945777173963 15.750016125786228 2.796065963036775 0 0 0
103 0 3 -1.13 15.750593234470132 12.60005388500815 0.3350600721959426 0 0 0
104 0 3 -1.13 12.60000202001697 15.750631128599473 0.33481544269703123 0 0 0
105 0 3 -1.13 12.599926542317847 12.599771583869611 3.313822774405429 0 0 0
106 0 2 2.03 12.599951278112307 12.599638659131594 6.308738786328108 0 0 0
108 0 3 -1.13 15.750588125747807 12.599456378854626 6.322564645718163 0 0 0
109 0 3 -1.13 12.599917793804217 15.750362931134477 6.320594732901137 0 0 0
132 0 1 1.36 22.049794638440016 9.450138634826166 2.793945145771424 0 0 0
134 0 3 -1.13 18.900139068567064 9.450069689720761 0.33523321571131104 0 0 0
139 0 3 -1.13 18.898614041491488 9.450330166017718 6.329654280948116 0 0 0
141 0 2 2.03 18.899751274718092 12.599835554674517 0.3985208234702872 0 0 0
142 0 1 1.36 22.0497152815089 15.749498227173516 2.794196513878353 0 0 0
143 0 3 -1.13 22.05037788461307 12.599997038629555 0.33408496015219535 0 0 0
144 0 3 -1.13 18.90010142664783 15.749914040071635 0.3353159224798475 0 0 0
145 0 3 -1.13 18.902102013819647 12.599642411558188 3.31679630706614 0 0 0
146 0 2 2.03 18.899431431470244 12.599653416716098 6.316408943881471 0 0 0
148 0 3 -1.13 22.049981230838828 12.59959961202859 6.32663033506526 0 0 0
149 0 3 -1.13 18.89856602356072 15.749773569366255 6.328128497250195 0 0 0
31 0 2 2.03 1.2204712879030769e-05 18.90011619735115 0.39889838531168803 0 0 0
32 0 1 1.36 3.15038668324563 22.049883302808027 2.7952067961566067 0 0 0
33 0 3 -1.13 3.150298336654598 18.899953369934202 0.3355579220660853 0 0 0
34 0 3 -1.13 4.801499145741786e-06 22.04994091044838 0.33495310543539847 0 0 0
35 0 3 -1.13 5.807299561879732e-05 18.900050222004896 3.316694593266692 0 0 0
36 0 2 2.03 3.279022475799575e-05 18.899925666481323 6.31567452486376 0 0 0
38 0 3 -1.13 3.150097209350307 18.89923432669209 6.325592550869982 0 0 0
39 0 3 -1.13 4.834731816487502e-05 22.049754493407697 6.326156231796646 0 0 0
71 0 2 2.03 6.300343235394051 18.899706814313674 0.39923951536166696 0 0 0
74 0 3 -1.13 6.300049065039849 22.04971865183095 0.3354934030806834 0 0 0
75 0 3 -1.13 6.301293059234626 18.898937954745325 3.3174317851693216 0 0 0
76 0 2 2.03 6.301356003471417 18.89873771441417 6.31727491692337 0 0 0
79 0 3 -1.13 6.301199587735421 22.049789473976347 6.325620831966782 0 0 0
72 0 1 1.36 9.45046104143684 22.04995293985418 2.794081451869054 0 0 0
73 0 3 -1.13 9.45001336821124 18.90008444473684 0.3352224792837104 0 0 0
78 0 3 -1.13 9.450163358672942 18.89892155138413 6.329312020298519 0 0 0
111 0 2 2.03 12.599986630910305 18.89993633130518 0.39829665917439966 0 0 0
112 0 1 1.36 15.749487551848413 22.049958674509586 2.794155292291223 0 0 0
113 0 3 -1.13 15.7499680262493 18.90008354234292 0.3352296355774579 0 0 0
114 0 3 -1.13 12.599995202399786 22.05027757263074 0.3335350269725921 0 0 0
115 0 3 -1.13 12.599945013021102 18.902559696569305 3.316571373127432 0 0 0
116 0 2 2.03 12.599926583412122 18.899464329742674 6.316079768320977 0 0 0
118 0 3 -1.13 15.749786059732566 18.898926776972317 6.329201431173522 0 0 0
119 0 3 -1.13 12.599950187366945 22.04965127321561 6.327022411586901 0 0 0
151 0 2 2.03 18.89965644086185 18.899719409974644 0.39925524662162776 0 0 0
152 0 1 1.36 22.049664955527316 22.049902602334814 2.795252636911933 0 0 0
153 0 3 -1.13 22.049717286033314 18.899955103691912 0.33557151661818546 0 0 0
154 0 3 -1.13 18.899950430761443 22.049741334871417 0.3355532724292003 0 0 0
155 0 3 -1.13 18.898695001039076 18.898900359770966 3.317413632461991 0 0 0
156 0 2 2.03 18.89867284928946 18.898785008369444 6.3171912029487345 0 0 0
158 0 3 -1.13 22.049942705470524 18.899255828392775 6.325423933467909 0 0 0
159 0 3 -1.13 18.89879729618187 22.049826515930807 6.3255254262122955 0 0 0
7 0 1 1.36 3.1525182044723024 3.151769509373827 8.660864230324954 0 0 0
10 0 3 -1.13 25.199864999615784 25.19900679080943 9.292953025513206 -1 -1 0
20 0 3 -1.13 25.199933528805026 6.3006075145750255 9.292827976946002 -1 0 0
50 0 3 -1.13 6.298522396559718 25.19858174024084 9.292782732228636 0 -1 0
60 0 3 -1.13 6.293807561082279 6.295687374253482 9.294127800319618 0 0 0
47 0 1 1.36 9.4514450489081 3.15281931600294 8.661632981068314 0 0 0
87 0 1 1.36 15.748169395722243 3.1527782278497853 8.66132465995885 0 0 0
90 0 3 -1.13 12.600141993633232 25.19945742887056 9.292879860388258 0 -1 0
100 0 3 -1.13 12.600620948221824 6.299412131585295 9.291044149124332 0 0 0
127 0 1 1.36 22.04787444529303 3.151458951045298 8.660714378668336 0 0 0
130 0 3 -1.13 18.90147039672908 25.19853666076629 9.29282904597945 0 -1 0
140 0 3 -1.13 18.905709316989103 6.296021370320472 9.29450542070211 0 0 0
17 0 1 1.36 3.151882457100541 9.448379011066269 8.65949027865124 0 0 0
27 0 1 1.36 3.1517294417661526 15.749908771822676 8.658947339536434 0 0 0
30 0 3 -1.13 25.199915078798522 12.600866367541197 9.293868204602134 -1 0 0
70 0 3 -1.13 6.298692471794085 12.602327609741499 9.294344618095149 0 0 0
57 0 1 1.36 9.46067979732937 9.456749846852846 8.669852309851356 0 0 0
67 0 1 1.36 9.45914605241697 15.739844575057075 8.665820433431493 0 0 0
97 0 1 1.36 15.739101152503451 9.457017862607554 8.66924279169919 0 0 0
107 0 1 1.36 15.740632627592776 15.740158653017712 8.665446699813705 0 0 0
110 0 3 -1.13 12.60029732380841 12.602049780939119 9.280806908191702 0 0 0
137 0 1 1.36 22.048518374850424 9.448518631914327 8.65921530283562 0 0 0
147 0 1 1.36 22.04846391938947 15.750203660434451 8.658970910862598 0 0 0
150 0 3 -1.13 18.900990674167705 12.602151710678005 9.294481700749362 0 0 0
37 0 1 1.36 3.1516747888091134 22.0499041959749 8.660499258141122 0 0 0
40 0 3 -1.13 25.199860161686082 18.89952091883764 9.2931254677139 -1 0 0
80 0 3 -1.13 6.294836106157772 18.903304894286023 9.295143689583847 0 0 0
77 0 1 1.36 9.449859184113016 22.050308339387414 8.65982614225743 0 0 0
117 0 1 1.36 15.750126761791957 22.05025886717947 8.659899561425606 0 0 0
120 0 3 -1.13 12.60004778297965 18.89753716241871 9.294026282917477 0 0 0
157 0 1 1.36 22.048336302321264 22.04979546250489 8.6605506275948 0 0 0
160 0 3 -1.13 18.9052399173028 18.903431516628928 9.294964211703578 0 0 0
181 1 7 0.0623468399 8.17872894 14.36527334 16.29193611 0 0 0
182 1 7 0.0623116014 7.70978756 11.92758894 16.31911523 0 0 0
161 1 4 -0.0601209856 16.33504013 12.952247 16.29768657 0 0 0
162 1 4 -0.0609891785 16.33556973 11.56186618 16.31083078 0 0 0
163 1 4 -0.0461249666 15.12509397 10.86870226 16.30413577 0 0 0
164 1 4 0.0357917212 13.90329735 11.55936405 16.29067218 0 0 0
165 1 4 0.0525861939 13.89670231 12.96442847 16.29920506 0 0 0
166 1 4 -0.037446476 15.12417631 13.6472045 16.28454445 0 0 0
167 1 5 -0.3536773896 12.70591391 13.71028122 16.24138788 0 0 0
168 1 4 0.0525861939 11.3955859 13.20301936 16.29920683 0 0 0
169 1 4 -0.037446476 10.31934164 14.10555703 16.28454564 0 0 0
170 1 4 -0.0601209856 8.99892383 13.652068 16.29768437 0 0 0
171 1 4 -0.0609891785 8.73552869 12.28686391 16.31083073 0 0 0
172 1 4 -0.0461249666 9.79311638 11.37733878 16.30413755 0 0 0
173 1 4 0.0357917212 11.12345819 11.82454248 16.29067317 0 0 0
174 1 6 -0.0857233656 12.40777096 10.58488687 16.27000441 0 0 0
177 1 7 0.0635434461 15.14010169 9.78101108 16.30536833 0 0 0
178 1 7 0.064510841 15.14564316 14.73362896 16.26041714 0 0 0
179 1 7 0.1665826817 12.79965254 14.69292518 16.46076985 0 0 0
180 1 7 0.064510841 10.50366802 15.17644583 16.26042194 0 0 0
183 1 7 0.0635434461 9.57273094 10.31210255 16.30537033 0 0 0
175 1 7 0.0623468399 17.27528493 13.49751894 16.29194106 0 0 0
176 1 7 0.0623116014 17.27488292 11.01513508 16.31911461 0 0 0

Velocities

1 0 0 0
2 0 0 0
3 0 0 0
4 0 0 0
5 0 0 0
6 0 0 0
8 0 0 0
9 0 0 0
11 0 0 0
13 0 0 0
15 0 0 0
16 0 0 0
18 0 0 0
41 0 0 0
44 0 0 0
45 0 0 0
46 0 0 0
49 0 0 0
51 0 0 0
55 0 0 0
56 0 0 0
42 0 0 0
43 0 0 0
48 0 0 0
53 0 0 0
58 0 0 0
81 0 0 0
82 0 0 0
83 0 0 0
84 0 0 0
85 0 0 0
86 0 0 0
88 0 0 0
89 0 0 0
91 0 0 0
93 0 0 0
95 0 0 0
96 0 0 0
98 0 0 0
121 0 0 0
122 0 0 0
123 0 0 0
124 0 0 0
125 0 0 0
126 0 0 0
128 0 0 0
129 0 0 0
131 0 0 0
133 0 0 0
135 0 0 0
136 0 0 0
138 0 0 0
12 0 0 0
14 0 0 0
19 0 0 0
21 0 0 0
22 0 0 0
23 0 0 0
24 0 0 0
25 0 0 0
26 0 0 0
28 0 0 0
29 0 0 0
54 0 0 0
59 0 0 0
61 0 0 0
64 0 0 0
65 0 0 0
66 0 0 0
69 0 0 0
52 0 0 0
62 0 0 0
63 0 0 0
68 0 0 0
92 0 0 0
94 0 0 0
99 0 0 0
101 0 0 0
102 0 0 0
103 0 0 0
104 0 0 0
105 0 0 0
106 0 0 0
108 0 0 0
109 0 0 0
132 0 0 0
134 0 0 0
139 0 0 0
141 0 0 0
142 0 0 0
143 0 0 0
144 0 0 0
145 0 0 0
146 0 0 0
148 0 0 0
149 0 0 0
31 0 0 0
32 0 0 0
33 0 0 0
34 0 0 0
35 0 0 0
36 0 0 0
38 0 0 0
39 0 0 0
71 0 0 0
74 0 0 0
75 0 0 0
76 0 0 0
79 0 0 0
72 0 0 0
73 0 0 0
78 0 0 0
111 0 0 0
112 0 0 0
113 0 0 0
114 0 0 0
115 0 0 0
116 0 0 0
118 0 0 0
119 0 0 0
151 0 0 0
152 0 0 0
153 0 0 0
154 0 0 0
155 0 0 0
156 0 0 0
158 0 0 0
159 0 0 0
7 0 0 0
10 0 0 0
20 0 0 0
50 0 0 0
60 0 0 0
47 0 0 0
87 0 0 0
90 0 0 0
100 0 0 0
127 0 0 0
130 0 0 0
140 0 0 0
17 0 0 0
27 0 0 0
30 0 0 0
70 0 0 0
57 0 0 0
67 0 0 0
97 0 0 0
107 0 0 0
110 0 0 0
137 0 0 0
147 0 0 0
150 0 0 0
37 0 0 0
40 0 0 0
80 0 0 0
77 0 0 0
117 0 0 0
120 0 0 0
157 0 0 0
160 0 0 0
181 0 0 0
182 0 0 0
161 0 0 0
162 0 0 0
163 0 0 0
164 0 0 0
165 0 0 0
166 0 0 0
167 0 0 0
168 0 0 0
169 0 0 0
170 0 0 0
171 0 0 0
172 0 0 0
173 0 0 0
174 0 0 0
177 0 0 0
178 0 0 0
179 0 0 0
180 0 0 0
183 0 0 0
175 0 0 0
176 0 0 0
