23
Phenothiazine neutral; RDKit MMFF94 geometry; Gasteiger charges (screening only)
C  16.33504013 12.95224700 16.29768657 -0.0601209856
C  16.33556973 11.56186618 16.31083078 -0.0609891785
C  15.12509397 10.86870226 16.30413577 -0.0461249666
C  13.90329735 11.55936405 16.29067218 0.0357917212
C  13.89670231 12.96442847 16.29920506 0.0525861939
C  15.12417631 13.64720450 16.28454445 -0.0374464760
N  12.70591391 13.71028122 16.24138788 -0.3536773896
C  11.39558590 13.20301936 16.29920683 0.0525861939
C  10.31934164 14.10555703 16.28454564 -0.0374464760
C  8.99892383 13.65206800 16.29768437 -0.0601209856
C  8.73552869 12.28686391 16.31083073 -0.0609891785
C  9.79311638 11.37733878 16.30413755 -0.0461249666
C  11.12345819 11.82454248 16.29067317 0.0357917212
S  12.40777096 10.58488687 16.27000441 -0.0857233656
H  17.27528493 13.49751894 16.29194106 0.0623468399
H  17.27488292 11.01513508 16.31911461 0.0623116014
H  15.14010169 9.78101108 16.30536833 0.0635434461
H  15.14564316 14.73362896 16.26041714 0.0645108410
H  12.79965254 14.69292518 16.46076985 0.1665826817
H  10.50366802 15.17644583 16.26042194 0.0645108410
H  8.17872894 14.36527334 16.29193611 0.0623468399
H  7.70978756 11.92758894 16.31911523 0.0623116014
H  9.57273094 10.31210255 16.30537033 0.0635434461
