LAMMPS data file: CsPbI3 slab + 1 neutral phenothiazine (rigid PTZ)

183 atoms
0 bonds
0 angles
0 dihedrals
0 impropers

7 atom types
0 bond types
0 angle types
0 dihedral types
0 improper types

0.0 25.200000 xlo xhi
0.0 25.200000 ylo yhi
0.0 32.000000 zlo zhi

Masses

 1 132.90545196 # Cs
 2 207.20000000 # Pb
 3 126.90447000 # I
 4 12.01100000 # C
 5 14.00700000 # N
 6 32.06000000 # S
 7 1.00800000 # H

Atoms # full

     1    0  2  2.0300000000  0.00000000  0.00000000  0.00000000
     2    0  1  1.3600000000  3.15000000  3.15000000  3.15000000
     3    0  3 -1.1300000000  3.15000000  0.00000000  0.00000000
     4    0  3 -1.1300000000  0.00000000  3.15000000  0.00000000
     5    0  3 -1.1300000000  0.00000000  0.00000000  3.15000000
     6    0  2  2.0300000000  0.00000000  0.00000000  6.30000000
     7    0  1  1.3600000000  3.15000000  3.15000000  9.45000000
     8    0  3 -1.1300000000  3.15000000  0.00000000  6.30000000
     9    0  3 -1.1300000000  0.00000000  3.15000000  6.30000000
    10    0  3 -1.1300000000  0.00000000  0.00000000  9.45000000
    11    0  2  2.0300000000  0.00000000  6.30000000  0.00000000
    12    0  1  1.3600000000  3.15000000  9.45000000  3.15000000
    13    0  3 -1.1300000000  3.15000000  6.30000000  0.00000000
    14    0  3 -1.1300000000  0.00000000  9.45000000  0.00000000
    15    0  3 -1.1300000000  0.00000000  6.30000000  3.15000000
    16    0  2  2.0300000000  0.00000000  6.30000000  6.30000000
    17    0  1  1.3600000000  3.15000000  9.45000000  9.45000000
    18    0  3 -1.1300000000  3.15000000  6.30000000  6.30000000
    19    0  3 -1.1300000000  0.00000000  9.45000000  6.30000000
    20    0  3 -1.1300000000  0.00000000  6.30000000  9.45000000
    21    0  2  2.0300000000  0.00000000  12.60000000  0.00000000
    22    0  1  1.3600000000  3.15000000  15.75000000  3.15000000
    23    0  3 -1.1300000000  3.15000000  12.60000000  0.00000000
    24    0  3 -1.1300000000  0.00000000  15.75000000  0.00000000
    25    0  3 -1.1300000000  0.00000000  12.60000000  3.15000000
    26    0  2  2.0300000000  0.00000000  12.60000000  6.30000000
    27    0  1  1.3600000000  3.15000000  15.75000000  9.45000000
    28    0  3 -1.1300000000  3.15000000  12.60000000  6.30000000
    29    0  3 -1.1300000000  0.00000000  15.75000000  6.30000000
    30    0  3 -1.1300000000  0.00000000  12.60000000  9.45000000
    31    0  2  2.0300000000  0.00000000  18.90000000  0.00000000
    32    0  1  1.3600000000  3.15000000  22.05000000  3.15000000
    33    0  3 -1.1300000000  3.15000000  18.90000000  0.00000000
    34    0  3 -1.1300000000  0.00000000  22.05000000  0.00000000
    35    0  3 -1.1300000000  0.00000000  18.90000000  3.15000000
    36    0  2  2.0300000000  0.00000000  18.90000000  6.30000000
    37    0  1  1.3600000000  3.15000000  22.05000000  9.45000000
    38    0  3 -1.1300000000  3.15000000  18.90000000  6.30000000
    39    0  3 -1.1300000000  0.00000000  22.05000000  6.30000000
    40    0  3 -1.1300000000  0.00000000  18.90000000  9.45000000
    41    0  2  2.0300000000  6.30000000  0.00000000  0.00000000
    42    0  1  1.3600000000  9.45000000  3.15000000  3.15000000
    43    0  3 -1.1300000000  9.45000000  0.00000000  0.00000000
    44    0  3 -1.1300000000  6.30000000  3.15000000  0.00000000
    45    0  3 -1.1300000000  6.30000000  0.00000000  3.15000000
    46    0  2  2.0300000000  6.30000000  0.00000000  6.30000000
    47    0  1  1.3600000000  9.45000000  3.15000000  9.45000000
    48    0  3 -1.1300000000  9.45000000  0.00000000  6.30000000
    49    0  3 -1.1300000000  6.30000000  3.15000000  6.30000000
    50    0  3 -1.1300000000  6.30000000  0.00000000  9.45000000
    51    0  2  2.0300000000  6.30000000  6.30000000  0.00000000
    52    0  1  1.3600000000  9.45000000  9.45000000  3.15000000
    53    0  3 -1.1300000000  9.45000000  6.30000000  0.00000000
    54    0  3 -1.1300000000  6.30000000  9.45000000  0.00000000
    55    0  3 -1.1300000000  6.30000000  6.30000000  3.15000000
    56    0  2  2.0300000000  6.30000000  6.30000000  6.30000000
    57    0  1  1.3600000000  9.45000000  9.45000000  9.45000000
    58    0  3 -1.1300000000  9.45000000  6.30000000  6.30000000
    59    0  3 -1.1300000000  6.30000000  9.45000000  6.30000000
    60    0  3 -1.1300000000  6.30000000  6.30000000  9.45000000
    61    0  2  2.0300000000  6.30000000  12.60000000  0.00000000
    62    0  1  1.3600000000  9.45000000  15.75000000  3.15000000
    63    0  3 -1.1300000000  9.45000000  12.60000000  0.00000000
    64    0  3 -1.1300000000  6.30000000  15.75000000  0.00000000
    65    0  3 -1.1300000000  6.30000000  12.60000000  3.15000000
    66    0  2  2.0300000000  6.30000000  12.60000000  6.30000000
    67    0  1  1.3600000000  9.45000000  15.75000000  9.45000000
    68    0  3 -1.1300000000  9.45000000  12.60000000  6.30000000
    69    0  3 -1.1300000000  6.30000000  15.75000000  6.30000000
    70    0  3 -1.1300000000  6.30000000  12.60000000  9.45000000
    71    0  2  2.0300000000  6.30000000  18.90000000  0.00000000
    72    0  1  1.3600000000  9.45000000  22.05000000  3.15000000
    73    0  3 -1.1300000000  9.45000000  18.90000000  0.00000000
    74    0  3 -1.1300000000  6.30000000  22.05000000  0.00000000
    75    0  3 -1.1300000000  6.30000000  18.90000000  3.15000000
    76    0  2  2.0300000000  6.30000000  18.90000000  6.30000000
    77    0  1  1.3600000000  9.45000000  22.05000000  9.45000000
    78    0  3 -1.1300000000  9.45000000  18.90000000  6.30000000
    79    0  3 -1.1300000000  6.30000000  22.05000000  6.30000000
    80    0  3 -1.1300000000  6.30000000  18.90000000  9.45000000
    81    0  2  2.0300000000  12.60000000  0.00000000  0.00000000
    82    0  1  1.3600000000  15.75000000  3.15000000  3.15000000
    83    0  3 -1.1300000000  15.75000000  0.00000000  0.00000000
    84    0  3 -1.1300000000  12.60000000  3.15000000  0.00000000
    85    0  3 -1.1300000000  12.60000000  0.00000000  3.15000000
    86    0  2  2.0300000000  12.60000000  0.00000000  6.30000000
    87    0  1  1.3600000000  15.75000000  3.15000000  9.45000000
    88    0  3 -1.1300000000  15.75000000  0.00000000  6.30000000
    89    0  3 -1.1300000000  12.60000000  3.15000000  6.30000000
    90    0  3 -1.1300000000  12.60000000  0.00000000  9.45000000
    91    0  2  2.0300000000  12.60000000  6.30000000  0.00000000
    92    0  1  1.3600000000  15.75000000  9.45000000  3.15000000
    93    0  3 -1.1300000000  15.75000000  6.30000000  0.00000000
    94    0  3 -1.1300000000  12.60000000  9.45000000  0.00000000
    95    0  3 -1.1300000000  12.60000000  6.30000000  3.15000000
    96    0  2  2.0300000000  12.60000000  6.30000000  6.30000000
    97    0  1  1.3600000000  15.75000000  9.45000000  9.45000000
    98    0  3 -1.1300000000  15.75000000  6.30000000  6.30000000
    99    0  3 -1.1300000000  12.60000000  9.45000000  6.30000000
   100    0  3 -1.1300000000  12.60000000  6.30000000  9.45000000
   101    0  2  2.0300000000  12.60000000  12.60000000  0.00000000
   102    0  1  1.3600000000  15.75000000  15.75000000  3.15000000
   103    0  3 -1.1300000000  15.75000000  12.60000000  0.00000000
   104    0  3 -1.1300000000  12.60000000  15.75000000  0.00000000
   105    0  3 -1.1300000000  12.60000000  12.60000000  3.15000000
   106    0  2  2.0300000000  12.60000000  12.60000000  6.30000000
   107    0  1  1.3600000000  15.75000000  15.75000000  9.45000000
   108    0  3 -1.1300000000  15.75000000  12.60000000  6.30000000
   109    0  3 -1.1300000000  12.60000000  15.75000000  6.30000000
   110    0  3 -1.1300000000  12.60000000  12.60000000  9.45000000
   111    0  2  2.0300000000  12.60000000  18.90000000  0.00000000
   112    0  1  1.3600000000  15.75000000  22.05000000  3.15000000
   113    0  3 -1.1300000000  15.75000000  18.90000000  0.00000000
   114    0  3 -1.1300000000  12.60000000  22.05000000  0.00000000
   115    0  3 -1.1300000000  12.60000000  18.90000000  3.15000000
   116    0  2  2.0300000000  12.60000000  18.90000000  6.30000000
   117    0  1  1.3600000000  15.75000000  22.05000000  9.45000000
   118    0  3 -1.1300000000  15.75000000  18.90000000  6.30000000
   119    0  3 -1.1300000000  12.60000000  22.05000000  6.30000000
   120    0  3 -1.1300000000  12.60000000  18.90000000  9.45000000
   121    0  2  2.0300000000  18.90000000  0.00000000  0.00000000
   122    0  1  1.3600000000  22.05000000  3.15000000  3.15000000
   123    0  3 -1.1300000000  22.05000000  0.00000000  0.00000000
   124    0  3 -1.1300000000  18.90000000  3.15000000  0.00000000
   125    0  3 -1.1300000000  18.90000000  0.00000000  3.15000000
   126    0  2  2.0300000000  18.90000000  0.00000000  6.30000000
   127    0  1  1.3600000000  22.05000000  3.15000000  9.45000000
   128    0  3 -1.1300000000  22.05000000  0.00000000  6.30000000
   129    0  3 -1.1300000000  18.90000000  3.15000000  6.30000000
   130    0  3 -1.1300000000  18.90000000  0.00000000  9.45000000
   131    0  2  2.0300000000  18.90000000  6.30000000  0.00000000
   132    0  1  1.3600000000  22.05000000  9.45000000  3.15000000
   133    0  3 -1.1300000000  22.05000000  6.30000000  0.00000000
   134    0  3 -1.1300000000  18.90000000  9.45000000  0.00000000
   135    0  3 -1.1300000000  18.90000000  6.30000000  3.15000000
   136    0  2  2.0300000000  18.90000000  6.30000000  6.30000000
   137    0  1  1.3600000000  22.05000000  9.45000000  9.45000000
   138    0  3 -1.1300000000  22.05000000  6.30000000  6.30000000
   139    0  3 -1.1300000000  18.90000000  9.45000000  6.30000000
   140    0  3 -1.1300000000  18.90000000  6.30000000  9.45000000
   141    0  2  2.0300000000  18.90000000  12.60000000  0.00000000
   142    0  1  1.3600000000  22.05000000  15.75000000  3.15000000
   143    0  3 -1.1300000000  22.05000000  12.60000000  0.00000000
   144    0  3 -1.1300000000  18.90000000  15.75000000  0.00000000
   145    0  3 -1.1300000000  18.90000000  12.60000000  3.15000000
   146    0  2  2.0300000000  18.90000000  12.60000000  6.30000000
   147    0  1  1.3600000000  22.05000000  15.75000000  9.45000000
   148    0  3 -1.1300000000  22.05000000  12.60000000  6.30000000
   149    0  3 -1.1300000000  18.90000000  15.75000000  6.30000000
   150    0  3 -1.1300000000  18.90000000  12.60000000  9.45000000
   151    0  2  2.0300000000  18.90000000  18.90000000  0.00000000
   152    0  1  1.3600000000  22.05000000  22.05000000  3.15000000
   153    0  3 -1.1300000000  22.05000000  18.90000000  0.00000000
   154    0  3 -1.1300000000  18.90000000  22.05000000  0.00000000
   155    0  3 -1.1300000000  18.90000000  18.90000000  3.15000000
   156    0  2  2.0300000000  18.90000000  18.90000000  6.30000000
   157    0  1  1.3600000000  22.05000000  22.05000000  9.45000000
   158    0  3 -1.1300000000  22.05000000  18.90000000  6.30000000
   159    0  3 -1.1300000000  18.90000000  22.05000000  6.30000000
   160    0  3 -1.1300000000  18.90000000  18.90000000  9.45000000
   161    1  4 -0.0601209856  16.33504013  12.95224700  16.29768657
   162    1  4 -0.0609891785  16.33556973  11.56186618  16.31083078
   163    1  4 -0.0461249666  15.12509397  10.86870226  16.30413577
   164    1  4  0.0357917212  13.90329735  11.55936405  16.29067218
   165    1  4  0.0525861939  13.89670231  12.96442847  16.29920506
   166    1  4 -0.0374464760  15.12417631  13.64720450  16.28454445
   167    1  5 -0.3536773896  12.70591391  13.71028122  16.24138788
   168    1  4  0.0525861939  11.39558590  13.20301936  16.29920683
   169    1  4 -0.0374464760  10.31934164  14.10555703  16.28454564
   170    1  4 -0.0601209856  8.99892383  13.65206800  16.29768437
   171    1  4 -0.0609891785  8.73552869  12.28686391  16.31083073
   172    1  4 -0.0461249666  9.79311638  11.37733878  16.30413755
   173    1  4  0.0357917212  11.12345819  11.82454248  16.29067317
   174    1  6 -0.0857233656  12.40777096  10.58488687  16.27000441
   175    1  7  0.0623468399  17.27528493  13.49751894  16.29194106
   176    1  7  0.0623116014  17.27488292  11.01513508  16.31911461
   177    1  7  0.0635434461  15.14010169  9.78101108  16.30536833
   178    1  7  0.0645108410  15.14564316  14.73362896  16.26041714
   179    1  7  0.1665826817  12.79965254  14.69292518  16.46076985
   180    1  7  0.0645108410  10.50366802  15.17644583  16.26042194
   181    1  7  0.0623468399  8.17872894  14.36527334  16.29193611
   182    1  7  0.0623116014  7.70978756  11.92758894  16.31911523
   183    1  7  0.0635434461  9.57273094  10.31210255  16.30537033
